* ENCODING=ISO-8859-1
NAME          CPLEX
ROWS
 N  obj1    
 G  c1      
 G  c2      
 G  c3      
 G  c4      
 G  c5      
 G  c6      
 G  c7      
 G  c8      
 G  c9      
 G  c10     
 G  c11     
 G  c12     
 G  c13     
 G  c14     
 G  c15     
 G  c16     
 G  c17     
 G  c18     
 G  c19     
 G  c20     
 G  c21     
 G  c22     
 G  c23     
 G  c24     
 G  c25     
COLUMNS
    MARK0000  'MARKER'                 'INTORG'
    x1        obj1                            1
    x1        c4                            795
    x1        c6                            765
    x1        c9                            198
    x1        c13                           654
    x1        c15                           535
    x1        c20                           626
    x1        c21                           470
    x2        obj1                            1
    x2        c4                            828
    x3        obj1                            1
    x3        c5                            202
    x3        c9                            600
    x3        c13                          1000
    x3        c19                           213
    x4        obj1                            1
    x4        c2                            109
    x4        c3                            656
    x4        c6                            813
    x4        c13                           469
    x4        c19                           674
    x4        c21                           133
    x5        obj1                            1
    x5        c2                            525
    x5        c18                           772
    x6        obj1                            1
    x6        c19                           404
    x7        obj1                            1
    x7        c5                            481
    x7        c17                           775
    x8        obj1                            1
    x8        c8                            128
    x8        c14                           700
    x9        obj1                            1
    x9        c1                            738
    x10       obj1                            1
    x10       c1                            159
    x10       c16                           619
    x11       obj1                            1
    x12       obj1                            1
    x12       c4                            209
    x13       obj1                            1
    x13       c7                            345
    x13       c11                           319
    x13       c17                           328
    x14       obj1                            1
    x15       obj1                            1
    x15       c17                           320
    x15       c22                           518
    x15       c25                           343
    x16       obj1                            1
    x16       c10                           370
    x16       c14                           235
    x16       c18                           213
    x17       obj1                            1
    x17       c4                            794
    x17       c8                            545
    x17       c9                            420
    x17       c17                           366
    x17       c23                           224
    x18       obj1                            1
    x18       c2                            221
    x18       c17                           891
    x18       c21                           869
    x18       c22                           355
    x19       obj1                            1
    x19       c7                            998
    x19       c11                           404
    x19       c13                           642
    x20       obj1                            1
    x20       c3                            965
    x20       c7                            626
    x20       c10                           957
    x20       c13                           946
    x20       c20                           360
    x20       c23                           193
    x20       c25                           675
    x21       obj1                            1
    x21       c15                           491
    x21       c24                           942
    x22       obj1                            1
    x22       c1                            509
    x22       c21                           947
    x22       c24                           773
    x23       obj1                            1
    x23       c5                            961
    x23       c12                           796
    x23       c14                           683
    x23       c22                           225
    x24       obj1                            1
    x24       c3                            791
    x24       c9                            326
    x24       c11                           194
    x24       c13                           885
    x24       c16                           146
    x25       obj1                            1
    x25       c3                            492
    x25       c11                           305
    x25       c14                           733
    x25       c18                           439
    x26       obj1                            1
    x26       c2                            353
    x26       c16                           620
    x27       obj1                            1
    x28       obj1                            1
    x28       c4                            958
    x28       c15                           907
    x28       c20                           828
    x28       c25                           902
    x29       obj1                            1
    x30       obj1                            1
    x30       c24                           378
    x31       obj1                            1
    x31       c6                            128
    x31       c10                           625
    x31       c19                           282
    x32       obj1                            1
    x32       c15                           923
    x32       c25                           330
    x33       obj1                            1
    x33       c9                            847
    x33       c10                           390
    x33       c12                           994
    x33       c14                           909
    x33       c17                           959
    x34       obj1                            1
    x34       c18                           714
    x34       c21                           170
    x34       c23                           572
    x35       obj1                            1
    x35       c3                            428
    x35       c7                            640
    x35       c9                            115
    x35       c16                           850
    x35       c21                           892
    x36       obj1                            1
    x36       c4                            418
    x37       obj1                            1
    x37       c4                            575
    x37       c10                           567
    x37       c15                           811
    x37       c21                           190
    x37       c25                           150
    x38       obj1                            1
    x38       c15                           614
    x38       c20                           877
    x39       obj1                            1
    x39       c10                           944
    x39       c22                           620
    x39       c23                           464
    x40       obj1                            1
    x40       c5                            874
    x40       c20                           200
    x41       obj1                            1
    x41       c3                            344
    x41       c5                            693
    x41       c6                            546
    x41       c8                            498
    x41       c20                           642
    x42       obj1                            1
    x42       c7                            145
    x42       c18                           918
    x42       c19                           759
    x42       c22                           674
    x43       obj1                            1
    x43       c6                            918
    x43       c7                            540
    x43       c9                            904
    x43       c22                           953
    x44       obj1                            1
    x44       c2                            147
    x44       c8                            503
    x45       obj1                            1
    x45       c5                            849
    x45       c6                            630
    x45       c12                           524
    x45       c19                           213
    x46       obj1                            1
    x46       c24                           993
    x47       obj1                            1
    x47       c6                            593
    x48       obj1                            1
    x48       c1                            571
    x48       c15                           113
    x48       c17                           860
    x48       c19                           941
    x49       obj1                            1
    x49       c22                           473
    x50       obj1                            1
    x50       c14                           372
    x50       c20                           946
    x50       c24                           816
    MARK0001  'MARKER'                 'INTEND'
RHS
    rhs       c1                            989
    rhs       c2                            678
    rhs       c3                           1838
    rhs       c4                           2289
    rhs       c5                           2030
    rhs       c6                           2197
    rhs       c7                           1647
    rhs       c8                            837
    rhs       c9                           1705
    rhs       c10                          1927
    rhs       c11                           611
    rhs       c12                          1157
    rhs       c13                          2298
    rhs       c14                          1816
    rhs       c15                          2197
    rhs       c16                          1118
    rhs       c17                          2250
    rhs       c18                          1528
    rhs       c19                          1743
    rhs       c20                          2240
    rhs       c21                          1836
    rhs       c22                          1909
    rhs       c23                           727
    rhs       c24                          1951
    rhs       c25                          1200
BOUNDS
 LI bnd       x1        0
 LI bnd       x2        0
 LI bnd       x3        0
 LI bnd       x4        0
 LI bnd       x5        0
 LI bnd       x6        0
 LI bnd       x7        0
 LI bnd       x8        0
 LI bnd       x9        0
 LI bnd       x10       0
 LI bnd       x11       0
 LI bnd       x12       0
 LI bnd       x13       0
 LI bnd       x14       0
 LI bnd       x15       0
 LI bnd       x16       0
 LI bnd       x17       0
 LI bnd       x18       0
 LI bnd       x19       0
 LI bnd       x20       0
 LI bnd       x21       0
 LI bnd       x22       0
 LI bnd       x23       0
 LI bnd       x24       0
 LI bnd       x25       0
 LI bnd       x26       0
 LI bnd       x27       0
 LI bnd       x28       0
 LI bnd       x29       0
 LI bnd       x30       0
 LI bnd       x31       0
 LI bnd       x32       0
 LI bnd       x33       0
 LI bnd       x34       0
 LI bnd       x35       0
 LI bnd       x36       0
 LI bnd       x37       0
 LI bnd       x38       0
 LI bnd       x39       0
 LI bnd       x40       0
 LI bnd       x41       0
 LI bnd       x42       0
 LI bnd       x43       0
 LI bnd       x44       0
 LI bnd       x45       0
 LI bnd       x46       0
 LI bnd       x47       0
 LI bnd       x48       0
 LI bnd       x49       0
 LI bnd       x50       0
ENDATA
